DATASET = "thpack4";
INSTANCE = "084";

WIDTH = 233;
HEIGHT = 220;
LENGTH = 587;

NO_OF_SHAPES = 10;
size = [|
  114,77,42 |
  105,81,74 |
  76,73,50 |
  104,91,41 |
  75,70,23 |
  93,67,20 |
  89,54,25 |
  89,46,28 |
  36,35,24 |
  72,50,29 |
|];

verticality = [|
  0,1,1 |
  1,1,1 |
  1,1,1 |
  0,0,1 |
  0,0,1 |
  0,0,1 |
  0,0,1 |
  0,1,1 |
  1,1,1 |
  0,1,1 |
|];

box_count = [
  11,
  14,
  17,
  13,
  15,
  16,
  8,
  10,
  13,
  8,
];
